\ Model Routes
\ LP format - for model browsing. Use MPS format to capture full model detail.
Maximize
  - 191.7153353028244 R{0,0} + 623.2046552982704 R{0,1}
   + 623.2046552982704 R{0,2} - 249.2301939667805 R{0,3}
   + 222.8649545650627 R{0,4} + 892.5014194710873 R{0,5}
   + 449.0745601781551 R{0,6} + 598.4363470595242 R{0,7}
   - 256.140831891889 R{1,0} + 22.92464298398514 R{1,1}
   + 650.4123196491564 R{1,2} + 348.5744420902087 R{1,3}
   + 1198.881248318718 R{2,0} + 1198.881248318718 R{2,1}
   - 278.4443928850388 R{2,2} - 59.13410337035452 R{2,3}
   + 602.7748664658451 R{2,4} + 1100.505917706273 R{2,5}
   + 832.465065802254 R{2,6} + 473.9263938819845 R{2,7}
   + 817.7507138802766 R{2,8} + 817.7507138802766 R{2,9}
   + 448.0612590630647 R{2,10} + 783.8854709949883 R{2,11}
   + 750.1285036541748 R{2,12} + 790.7457397404164 R{2,13}
   + 361.3186707869554 R{2,14} - 260.2482995389823 R{3,0}
   + 459.0257104485919 R{3,1} + 838.3862215394925 R{3,2}
   + 1067.967862746227 R{3,3} + 524.7336099726307 R{3,4}
   + 449.0390114331846 R{3,5} + 1299.399943082678 R{3,6}
   + 680.9425666905188 R{3,7} + 1325.886016352062 R{3,8}
   + 193.7515684031611 R{3,9} + 856.8593285721849 R{3,10}
   - 242.5208875955131 R{4,0} + 828.5964431846835 R{4,1}
   + 1338.413574514046 R{4,2} + 1750.419868351688 R{4,3}
   + 1291.500360765447 R{4,4} + 1164.989674449751 R{4,5}
   + 1028.055150984391 R{4,6} + 1200.539174424061 R{4,7}
   + 1158.67873978442 R{4,8} + 957.0513623702618 R{4,9}
   + 1669.506637073456 R{4,10} + 1135.328611523955 R{4,11}
   - 231.9775664337766 R{5,0} + 166.8396544238635 R{5,1}
   + 729.4065638506388 R{5,2} + 408.8247321660272 R{5,3}
   + 328.5479195157668 R{5,4} + 457.8549222614723 R{5,5}
   - 231.1436095783099 R{6,0} + 1370.402709432251 R{6,1}
   + 2203.660382897198 R{6,2} + 2548.258740052186 R{6,3}
   + 2134.457221554525 R{6,4} + 1440.600993524073 R{6,5}
   + 1863.835655555536 R{6,6} + 2351.1919453608 R{6,7}
   + 1382.927216434429 R{6,8} + 2416.578759378455 R{6,9}
   + 1709.479170768536 R{6,10} + 2124.77117486987 R{6,11}
   + 2515.941173484916 R{6,12} + 1623.952993645474 R{6,13}
   + 1850.312458140834 R{6,14} + 1060.05675427061 R{6,15}
Subject To
 R00: R{0,0} <= 1
 R01: R{0,1} <= 1
 R02: R{0,2} <= 1
 R03: R{0,3} <= 1
 R04: R{0,4} <= 1
 R05: R{0,5} <= 1
 R06: R{0,6} <= 1
 R07: R{0,7} <= 1
 R08: R{1,0} <= 1
 R09: R{1,1} <= 1
 R010: R{1,2} <= 1
 R011: R{1,3} <= 1
 R012: R{2,0} <= 1
 R013: R{2,1} <= 1
 R014: R{2,2} <= 1
 R015: R{2,3} <= 1
 R016: R{2,4} <= 1
 R017: R{2,5} <= 1
 R018: R{2,6} <= 1
 R019: R{2,7} <= 1
 R020: R{2,8} <= 1
 R021: R{2,9} <= 1
 R022: R{2,10} <= 1
 R023: R{2,11} <= 1
 R024: R{2,12} <= 1
 R025: R{2,13} <= 1
 R026: R{2,14} <= 1
 R027: R{3,0} <= 1
 R028: R{3,1} <= 1
 R029: R{3,2} <= 1
 R030: R{3,3} <= 1
 R031: R{3,4} <= 1
 R032: R{3,5} <= 1
 R033: R{3,6} <= 1
 R034: R{3,7} <= 1
 R035: R{3,8} <= 1
 R036: R{3,9} <= 1
 R037: R{3,10} <= 1
 R038: R{4,0} <= 1
 R039: R{4,1} <= 1
 R040: R{4,2} <= 1
 R041: R{4,3} <= 1
 R042: R{4,4} <= 1
 R043: R{4,5} <= 1
 R044: R{4,6} <= 1
 R045: R{4,7} <= 1
 R046: R{4,8} <= 1
 R047: R{4,9} <= 1
 R048: R{4,10} <= 1
 R049: R{4,11} <= 1
 R050: R{5,0} <= 1
 R051: R{5,1} <= 1
 R052: R{5,2} <= 1
 R053: R{5,3} <= 1
 R054: R{5,4} <= 1
 R055: R{5,5} <= 1
 R056: R{6,0} <= 1
 R057: R{6,1} <= 1
 R058: R{6,2} <= 1
 R059: R{6,3} <= 1
 R060: R{6,4} <= 1
 R061: R{6,5} <= 1
 R062: R{6,6} <= 1
 R063: R{6,7} <= 1
 R064: R{6,8} <= 1
 R065: R{6,9} <= 1
 R066: R{6,10} <= 1
 R067: R{6,11} <= 1
 R068: R{6,12} <= 1
 R069: R{6,13} <= 1
 R070: R{6,14} <= 1
 R071: R{6,15} <= 1
 R1_0: R{0,0} + R{0,1} + R{0,2} + R{0,3} + R{0,4} + R{0,5} + R{0,6}
   + R{0,7} <= 1
 R1_1: R{1,0} + R{1,1} + R{1,2} + R{1,3} <= 1
 R1_2: R{2,0} + R{2,1} + R{2,2} + R{2,3} + R{2,4} + R{2,5} + R{2,6}
   + R{2,7} + R{2,8} + R{2,9} + R{2,10} + R{2,11} + R{2,12} + R{2,13}
   + R{2,14} <= 1
 R1_3: R{3,0} + R{3,1} + R{3,2} + R{3,3} + R{3,4} + R{3,5} + R{3,6}
   + R{3,7} + R{3,8} + R{3,9} + R{3,10} <= 1
 R1_4: R{4,0} + R{4,1} + R{4,2} + R{4,3} + R{4,4} + R{4,5} + R{4,6}
   + R{4,7} + R{4,8} + R{4,9} + R{4,10} + R{4,11} <= 1
 R1_5: R{5,0} + R{5,1} + R{5,2} + R{5,3} + R{5,4} + R{5,5} <= 1
 R1_6: R{6,0} + R{6,1} + R{6,2} + R{6,3} + R{6,4} + R{6,5} + R{6,6}
   + R{6,7} + R{6,8} + R{6,9} + R{6,10} + R{6,11} + R{6,12} + R{6,13}
   + R{6,14} + R{6,15} <= 1
 R2_0: <= 0
 R2_1: 10 R{3,1} + 10 R{3,2} + 10 R{3,3} + 10 R{3,4} + 10 R{3,5}
   + 10 R{3,6} + 10 R{3,7} + 10 R{5,3} + 10 R{5,5} + 10 R{6,15} <= 10
 R2_2: <= 0
 R2_3: 4 R{2,10} + 4 R{5,1} + 4 R{5,2} <= 4
 R2_4: <= 0
 R2_5: 5 R{5,1} + 5 R{5,2} + 5 R{5,3} + 5 R{5,4} <= 5
 R2_6: 10 R{1,1} + 10 R{1,2} + 10 R{1,3} <= 10
 R2_7: 6 R{1,1} <= 6
 R2_8: <= 0
 R2_9: 12 R{2,12} + 12 R{4,1} + 12 R{4,2} + 12 R{4,3} + 12 R{4,4}
   + 12 R{4,5} + 12 R{4,6} + 12 R{4,7} + 12 R{4,8} <= 12
 R2_10: 8 R{6,1} + 8 R{6,2} + 8 R{6,4} + 8 R{6,6} + 8 R{6,10} + 8 R{6,11}
   + 8 R{6,14} <= 8
 R2_11: 15 R{4,11} <= 15
 R2_12: <= 0
 R2_13: 8 R{0,7} <= 8
 R2_14: <= 0
 R2_15: 11 R{0,0} + 11 R{0,1} + 11 R{0,2} + 11 R{4,1} + 11 R{4,2} <= 11
 R2_16: <= 0
 R2_17: <= 0
 R2_18: <= 0
 R2_19: 11 R{2,10} + 11 R{3,4} + 11 R{3,7} + 11 R{4,1} + 11 R{4,2}
   + 11 R{4,3} + 11 R{4,4} + 11 R{4,5} + 11 R{4,7} + 11 R{4,8} <= 11
 R2_20: 13 R{2,5} + 13 R{4,10} + 13 R{6,1} + 13 R{6,2} + 13 R{6,3}
   + 13 R{6,4} + 13 R{6,5} + 13 R{6,7} + 13 R{6,8} + 13 R{6,9} + 13 R{6,11}
   + 13 R{6,12} + 13 R{6,13} + 13 R{6,14} <= 13
 R2_21: <= 0
 R2_22: <= 0
 R2_23: 14 R{0,1} + 14 R{0,2} + 14 R{0,7} + 14 R{2,0} + 14 R{2,1}
   + 14 R{2,6} + 14 R{2,8} + 14 R{2,9} + 14 R{2,12} + 14 R{4,4} + 14 R{4,6}
   + 14 R{6,2} + 14 R{6,3} + 14 R{6,4} + 14 R{6,6} + 14 R{6,7} + 14 R{6,10}
   + 14 R{6,11} + 14 R{6,12} + 14 R{6,14} <= 14
 R2_24: 10 R{2,11} + 10 R{3,1} + 10 R{3,2} + 10 R{3,3} + 10 R{3,5}
   + 10 R{3,6} + 10 R{3,8} + 10 R{3,9} + 10 R{4,10} <= 10
 R2_25: <= 13
 R2_26: 6 R{2,11} + 6 R{5,1} + 6 R{5,2} + 6 R{5,3} + 6 R{5,4} + 6 R{5,5}
   <= 6
 R2_27: 5 R{1,3} + 5 R{2,13} + 5 R{3,3} + 5 R{6,1} + 5 R{6,2} + 5 R{6,3}
   + 5 R{6,4} + 5 R{6,6} + 5 R{6,8} + 5 R{6,9} + 5 R{6,10} + 5 R{6,11}
   + 5 R{6,12} + 5 R{6,13} + 5 R{6,14} <= 5
 R2_28: <= 0
 R2_29: <= 0
 R2_30: <= 0
 R2_31: <= 0
 R2_32: 7 R{0,4} + 7 R{0,5} + 7 R{5,4} <= 7
 R2_33: 12 R{2,11} + 12 R{2,13} + 12 R{3,5} + 12 R{3,9} <= 12
 R2_34: 5 R{4,11} + 5 R{6,6} + 5 R{6,10} + 5 R{6,15} <= 5
 R2_35: <= 0
 R2_36: <= 0
 R2_37: 5 R{3,1} + 5 R{3,2} + 5 R{3,6} + 5 R{3,8} + 5 R{3,10} + 5 R{5,5}
   <= 5
 R2_38: <= 0
 R2_39: <= 0
 R2_40: 15 R{2,3} + 15 R{2,4} + 15 R{2,5} + 15 R{2,10} + 15 R{2,11}
   + 15 R{2,13} + 15 R{4,8} <= 15
 R2_41: 5 R{3,2} + 5 R{3,3} + 5 R{3,6} + 5 R{3,8} + 5 R{3,10} + 5 R{4,3}
   + 5 R{4,5} + 5 R{4,6} + 5 R{6,4} + 5 R{6,5} + 5 R{6,9} + 5 R{6,15} <= 5
 R2_42: 4 R{2,3} + 4 R{2,4} + 4 R{2,5} + 4 R{2,10} + 4 R{2,11} + 4 R{2,13}
   <= 4
 R2_43: <= 0
 R2_44: <= 0
 R2_45: <= 0
 R2_46: 9 R{0,6} + 9 R{4,7} + 9 R{4,9} <= 9
 R2_47: 7 R{5,1} + 7 R{5,2} + 7 R{5,3} + 7 R{5,4} <= 7
 R2_48: 4 R{4,1} + 4 R{4,2} + 4 R{4,3} + 4 R{4,4} + 4 R{4,5} + 4 R{4,7}
   + 4 R{4,9} + 4 R{4,11} <= 4
 R2_49: <= 0
 R2_50: <= 0
 R2_51: 11 R{3,7} + 11 R{4,1} + 11 R{4,4} + 11 R{4,5} + 11 R{4,6}
   + 11 R{4,7} + 11 R{4,9} + 11 R{4,10} <= 11
 R2_52: 10 R{4,8} + 10 R{4,10} <= 10
 R2_53: 13 R{4,1} + 13 R{4,2} + 13 R{4,3} + 13 R{4,4} + 13 R{4,7}
   + 13 R{4,9} <= 13
 R2_54: 9 R{3,1} + 9 R{3,2} + 9 R{3,4} + 9 R{3,6} + 9 R{3,7} + 9 R{3,8}
   + 9 R{3,10} <= 9
 R2_55: 8 R{6,1} + 8 R{6,2} + 8 R{6,3} + 8 R{6,4} + 8 R{6,5} + 8 R{6,7}
   + 8 R{6,8} + 8 R{6,9} + 8 R{6,11} + 8 R{6,12} + 8 R{6,13} + 8 R{6,14}
   <= 8
 R2_56: 6 R{2,0} + 6 R{2,1} + 6 R{2,7} + 6 R{2,8} + 6 R{2,9} + 6 R{2,12}
   + 6 R{2,14} + 6 R{3,6} + 6 R{3,8} + 6 R{4,8} + 6 R{6,2} + 6 R{6,3}
   + 6 R{6,5} + 6 R{6,6} + 6 R{6,7} + 6 R{6,9} + 6 R{6,11} <= 6
 R2_57: <= 0
 R2_58: 15 R{4,11} <= 15
 R2_59: 10 R{4,10} + 10 R{4,11} + 10 R{6,14} <= 10
 R2_60: <= 0
 R2_61: 9 R{2,6} + 9 R{2,8} + 9 R{2,9} + 9 R{2,14} + 9 R{4,9} + 9 R{4,10}
   + 9 R{6,10} + 9 R{6,13} + 9 R{6,15} <= 9
 R2_62: <= 0
 R2_63: <= 0
 R2_64: <= 0
 R2_65: 5 R{2,0} + 5 R{2,1} + 5 R{6,1} + 5 R{6,2} + 5 R{6,3} + 5 R{6,4}
   + 5 R{6,6} + 5 R{6,7} + 5 R{6,8} + 5 R{6,9} + 5 R{6,10} + 5 R{6,11}
   + 5 R{6,12} + 5 R{6,13} + 5 R{6,14} <= 5
 R2_66: 7 R{4,11} + 7 R{6,1} + 7 R{6,2} + 7 R{6,3} + 7 R{6,4} + 7 R{6,5}
   + 7 R{6,6} + 7 R{6,9} + 7 R{6,10} + 7 R{6,11} + 7 R{6,12} + 7 R{6,13}
   + 7 R{6,14} <= 7
 R2_67: 3 R{0,1} + 3 R{0,2} + 3 R{0,6} + 3 R{0,7} + 3 R{2,0} + 3 R{2,1}
   + 3 R{2,6} + 3 R{2,7} + 3 R{4,10} + 3 R{6,3} + 3 R{6,7} + 3 R{6,9}
   + 3 R{6,12} <= 3
 R2_68: <= 6
 R2_69: 7 R{2,11} + 7 R{2,13} + 7 R{4,1} + 7 R{4,2} + 7 R{4,3} + 7 R{4,4}
   + 7 R{4,5} + 7 R{4,6} + 7 R{4,7} + 7 R{4,8} + 7 R{4,9} <= 7
 R2_70: 11 R{1,1} + 11 R{1,2} <= 11
 R2_71: 7 R{3,10} + 7 R{4,11} + 7 R{6,1} + 7 R{6,2} + 7 R{6,3} + 7 R{6,4}
   + 7 R{6,5} + 7 R{6,6} + 7 R{6,7} + 7 R{6,9} + 7 R{6,10} + 7 R{6,11}
   + 7 R{6,12} + 7 R{6,13} + 7 R{6,15} <= 7
 R2_72: <= 0
 R2_73: <= 0
 R2_74: 5 R{5,1} + 5 R{5,3} + 5 R{5,4} + 5 R{5,5} <= 5
 R2_75: 8 R{6,1} + 8 R{6,2} + 8 R{6,3} + 8 R{6,6} + 8 R{6,7} + 8 R{6,8}
   + 8 R{6,10} + 8 R{6,12} + 8 R{6,13} <= 8
 R2_76: 12 R{0,4} + 12 R{0,5} + 12 R{3,8} + 12 R{3,10} + 12 R{6,7}
   + 12 R{6,8} + 12 R{6,12} <= 12
 R2_77: 7 R{0,5} + 7 R{1,2} + 7 R{2,4} + 7 R{2,5} + 7 R{4,2} + 7 R{4,3}
   + 7 R{5,2} <= 7
Bounds
End
